language Essence 1.3

letting bot_end be [632, 623, 637, 0, 28, 92, 440, 62, 504, 622, 57, 567, 624, 455, 414; int(1..15)]
letting bot_start be [230, 158, 258, 397, 484, 608, 22, 463, 68, 69, 600, 41, 135, 25, 19; int(1..15)]
letting buffer_col be 2
letting buffer_row be 2
letting corridor_size be 1
letting n_shelves_col be 1
letting n_shelves_row be 44
letting shelf_col_size be 2
letting shelf_row_size be 1
